223 5
10 10 10 10 10 

0 0 0 0 0 0 1 2 
0 0 0 0 0 0 3 3 6 7 
1 0 1 0 0 0 3 9 5 4 
1 0 5 0 0 0 1 8 
8 0 10 0 0 0 1 8 
9 0 3 0 0 0 1 8 
7 0 3 0 0 0 1 8 
3 0 3 0 0 0 2 12 10 
5 0 10 0 0 0 2 12 10 
4 0 5 0 0 0 1 11 
4 0 6 0 0 0 1 13 
2 0 4 0 0 0 1 13 
0 0 0 0 0 0 1 14 
0 0 0 0 0 0 3 15 17 18 
1 0 0 0 0 1 3 24 19 16 
1 0 0 0 0 6 2 23 20 
1 0 0 0 0 4 2 24 19 
5 0 0 0 0 10 2 23 21 
7 0 0 0 0 9 2 23 22 
1 0 0 0 0 3 1 21 
9 0 0 0 0 4 1 22 
5 0 0 0 0 5 1 25 
10 0 0 0 0 5 1 25 
3 0 0 0 0 3 1 25 
0 0 0 0 0 0 3 26 38 50 
0 0 0 0 0 0 1 27 
2 0 0 1 0 0 2 30 28 
6 0 0 5 0 0 2 34 29 
3 0 0 7 0 0 2 33 32 
7 0 0 5 0 0 2 35 31 
5 0 0 6 0 0 2 32 77 
4 0 0 4 0 0 1 36 
6 0 0 7 0 0 1 35 
1 0 0 2 0 0 1 35 
7 0 0 5 0 0 1 37 
8 0 0 8 0 0 1 37 
0 0 0 0 0 0 1 62 
0 0 0 0 0 0 3 39 40 41 
7 1 0 0 0 0 1 42 
1 3 0 0 0 0 1 42 
4 7 0 0 0 0 1 42 
8 9 0 0 0 0 2 44 43 
2 6 0 0 0 0 2 46 45 
6 8 0 0 0 0 2 46 45 
8 4 0 0 0 0 3 48 47 215 
7 4 0 0 0 0 1 47 
7 3 0 0 0 0 1 49 
1 5 0 0 0 0 1 49 
0 0 0 0 0 0 1 62 
0 0 0 0 0 0 3 51 52 55 
8 0 0 0 2 0 2 54 53 
9 0 0 0 4 0 1 53 
8 0 0 0 10 0 2 57 56 
6 0 0 0 7 0 2 57 56 
1 0 0 0 2 0 2 58 57 
9 0 0 0 6 0 3 60 58 221 
9 0 0 0 3 0 2 60 59 
10 0 0 0 2 0 1 59 
3 0 0 0 7 0 1 61 
5 0 0 0 7 0 1 61 
0 0 0 0 0 0 1 62 
0 0 0 0 0 0 5 63 85 107 129 141 
0 0 0 0 0 0 2 64 83 
8 1 0 0 0 1 2 82 65 
4 3 0 0 0 7 3 81 80 66 
5 9 0 0 0 5 2 79 67 
7 6 0 0 0 4 3 78 77 68 
3 5 0 0 0 7 3 76 75 69 
3 5 0 0 0 2 2 74 70 
4 3 0 0 0 2 1 71 
9 8 0 0 0 6 1 72 
5 2 0 0 0 5 1 73 
4 9 0 0 0 8 1 84 
8 5 0 0 0 4 1 84 
5 7 0 0 0 9 1 84 
4 6 0 0 0 4 1 84 
8 5 0 0 0 5 1 84 
2 5 0 0 0 4 1 84 
8 3 0 0 0 5 1 84 
3 3 0 0 0 3 1 84 
8 5 0 0 0 6 1 84 
6 6 0 0 0 10 1 84 
3 4 0 0 0 3 1 84 
0 0 0 0 0 0 1 223 
0 0 0 0 0 0 2 86 105 
8 1 0 1 0 0 2 104 87 
1 5 0 4 0 0 3 103 102 88 
4 7 0 2 0 0 3 101 100 89 
8 3 0 5 0 0 2 99 90 
9 6 0 5 0 0 3 98 97 91 
2 6 0 5 0 0 2 96 92 
10 8 0 4 0 0 1 93 
9 4 0 5 0 0 1 94 
4 6 0 4 0 0 1 95 
5 4 0 5 0 0 1 106 
10 4 0 6 0 0 1 106 
7 6 0 3 0 0 1 106 
10 5 0 5 0 0 1 106 
4 5 0 7 0 0 1 106 
4 7 0 4 0 0 1 106 
6 5 0 7 0 0 1 106 
10 5 0 10 0 0 1 106 
5 5 0 10 0 0 1 106 
6 4 0 4 0 0 1 106 
9 4 0 4 0 0 1 106 
0 0 0 0 0 0 1 223 
0 0 0 0 0 0 1 108 
9 0 1 1 0 0 2 111 109 
3 0 4 5 0 0 1 110 
10 0 4 8 0 0 1 112 
9 0 5 1 0 0 1 112 
6 0 6 7 0 0 2 115 113 
9 0 6 5 0 0 4 127 121 119 114 
4 0 5 8 0 0 4 126 125 120 116 
1 0 7 5 0 0 5 126 125 124 119 118 
3 0 4 3 0 0 2 123 117 
3 0 6 2 0 0 2 124 118 
2 0 3 4 0 0 1 122 
8 0 7 5 0 0 1 123 
9 0 3 6 0 0 1 122 
6 0 4 6 0 0 1 122 
4 0 5 8 0 0 1 128 
9 0 2 5 0 0 1 128 
4 0 7 5 0 0 1 128 
8 0 7 5 0 0 1 128 
9 0 5 6 0 0 1 128 
2 0 9 5 0 0 1 128 
0 0 0 0 0 0 1 223 
0 0 0 0 0 0 4 130 131 133 134 
6 0 0 0 1 0 1 132 
6 0 0 0 5 0 1 132 
5 0 0 0 2 0 2 137 135 
7 0 0 0 3 0 2 138 136 
6 0 0 0 6 0 1 135 
9 0 0 0 2 0 1 136 
6 0 0 0 10 0 1 139 
1 0 0 0 7 0 1 139 
1 0 0 0 6 0 1 139 
9 0 0 0 8 0 1 140 
0 0 0 0 0 0 5 163 175 187 199 211 
0 0 0 0 0 0 3 142 145 149 
6 1 1 0 0 0 2 151 143 
2 1 6 0 0 0 2 160 144 
1 5 5 0 0 0 3 159 150 146 
5 6 6 0 0 0 5 161 159 155 152 151 
7 4 5 0 0 0 2 158 147 
8 5 10 0 0 0 2 155 148 
6 6 5 0 0 0 2 157 152 
4 10 5 0 0 0 2 158 152 
5 4 2 0 0 0 1 152 
3 5 3 0 0 0 2 158 154 
3 7 7 0 0 0 1 153 
10 5 2 0 0 0 1 154 
8 5 6 0 0 0 1 156 
4 9 7 0 0 0 1 157 
1 6 8 0 0 0 1 162 
2 6 5 0 0 0 1 162 
8 3 1 0 0 0 1 162 
7 3 4 0 0 0 1 162 
5 5 7 0 0 0 1 162 
2 4 5 0 0 0 1 162 
0 0 0 0 0 0 1 223 
0 0 0 0 0 0 4 164 166 168 171 
1 0 0 0 0 1 2 173 165 
3 0 0 0 0 8 1 167 
10 0 0 0 0 9 1 167 
9 0 0 0 0 3 1 169 
9 0 0 0 0 3 1 170 
6 0 0 0 0 6 1 172 
5 0 0 0 0 4 1 173 
3 0 0 0 0 7 1 172 
2 0 0 0 0 4 1 174 
9 0 0 0 0 5 1 174 
0 0 0 0 0 0 1 223 
0 0 0 0 0 0 4 176 178 180 181 
7 0 1 0 0 0 1 177 
9 0 5 0 0 0 2 183 179 
2 0 2 0 0 0 2 183 182 
9 0 5 0 0 0 2 185 182 
4 0 7 0 0 0 2 184 183 
1 0 6 0 0 0 1 182 
6 0 6 0 0 0 1 184 
7 0 4 0 0 0 1 185 
10 0 6 0 0 0 1 186 
2 0 8 0 0 0 1 186 
0 0 0 0 0 0 1 223 
0 0 0 0 0 0 5 188 190 191 193 197 
8 2 0 0 0 0 2 196 189 
8 6 0 0 0 0 1 192 
6 4 0 0 0 0 1 192 
4 6 0 0 0 0 2 196 195 
4 3 0 0 0 0 1 194 
2 2 0 0 0 0 1 194 
5 4 0 0 0 0 1 195 
9 10 0 0 0 0 1 198 
10 7 0 0 0 0 1 198 
10 6 0 0 0 0 1 198 
0 0 0 0 0 0 1 223 
0 0 0 0 0 0 3 200 201 202 
3 1 0 0 0 0 2 204 203 
8 6 0 0 0 0 2 204 203 
8 7 0 0 0 0 1 203 
7 5 0 0 0 0 3 208 206 205 
7 7 0 0 0 0 1 205 
6 8 0 0 0 0 1 207 
9 3 0 0 0 0 1 207 
10 5 0 0 0 0 1 209 
9 4 0 0 0 0 1 209 
4 4 0 0 0 0 1 210 
0 0 0 0 0 0 1 223 
0 0 0 0 0 0 2 212 213 
8 1 0 0 0 0 2 216 214 
3 5 0 0 0 0 3 217 216 215 
3 6 0 0 0 0 2 217 215 
10 6 0 0 0 0 3 221 220 219 
7 5 0 0 0 0 2 220 218 
7 3 0 0 0 0 1 218 
4 7 0 0 0 0 1 219 
5 3 0 0 0 0 1 222 
5 8 0 0 0 0 1 222 
4 6 0 0 0 0 1 222 
0 0 0 0 0 0 1 223 
0 0 0 0 0 0 0 
